40 7 1
1 3 0 544 1 544 2 544
1 1 0 494
1 1 3 352
1 1 3 299
1 3 0 331 2 331 5 91
1 1 0 420
1 1 3 482
1 1 3 504
1 2 3 403 6 163
1 1 0 553
1 2 3 358 6 358
1 3 0 557 2 557 5 317
1 1 3 534
1 1 0 344
1 1 0 780
1 1 0 494
1 1 3 496
1 1 3 352
1 1 0 367
1 2 3 471 6 471
1 3 0 798 1 798 2 798
1 3 0 682 1 682 2 682
1 1 0 631
1 1 0 779
1 2 3 294 6 294
1 2 0 290 2 290
1 1 0 515
1 3 0 655 1 655 2 655
1 3 0 530 1 530 3 530
1 1 3 363
1 2 3 435 6 435
1 1 0 373
1 1 0 317
1 1 3 500
1 1 0 351
1 2 0 331 2 331
1 1 3 468
1 1 3 337
1 1 0 752
1 1 0 326
